# Solution for model GasLib-40
# Objective value = 1.5281688857718850e+01
loadshed[innode_1] 0
loadshed[innode_2] 0
loadshed[innode_3] 0
loadshed[innode_4] 0
loadshed[innode_5] 0
loadshed[innode_6] 0
loadshed[innode_7] 0
loadshed[innode_8] 0
loadshed[source_1] -2.3196163098535716e-01
loadshed[source_2] 1.3732202204489974e-01
loadshed[source_3] 1.9130392677531949e-01
loadshed[sink_1] 0
loadshed[sink_2] 0
loadshed[sink_3] 0
loadshed[sink_4] 0
loadshed[sink_5] 0
loadshed[sink_6] 0
loadshed[sink_7] 0
loadshed[sink_8] 0
loadshed[sink_9] 0
loadshed[sink_10] 0
loadshed[sink_11] 0
loadshed[sink_12] 9.3442173907070669e-01
loadshed[sink_13] 0
loadshed[sink_14] 0
loadshed[sink_15] 0
loadshed[sink_16] 0
loadshed[sink_17] 0
loadshed[sink_18] 0
loadshed[sink_19] 0
loadshed[sink_20] 0
loadshed[sink_21] 0
loadshed[sink_22] 0
loadshed[sink_23] 0
loadshed[sink_24] 0
loadshed[sink_25] 0
loadshed[sink_26] 0
loadshed[sink_27] 0
loadshed[sink_28] 0
loadshed[sink_29] 0
flow[source_1,sink_3] 1.9476115645403928e+02
flow[innode_1,sink_16] 1.6354166666666970e+01
flow[innode_6,sink_13] -1.3367820187220481e+01
flow[sink_13,sink_14] -2.9721986853887149e+01
flow[sink_14,sink_10] -4.6076153520553817e+01
flow[sink_25,sink_26] 2.3003081114228203e+02
flow[sink_26,sink_9] 1.4825997780894869e+02
flow[sink_9,sink_18] 1.3190581114228203e+02
flow[sink_26,sink_4] 6.5416666666666671e+01
flow[sink_4,sink_20] 1.9401072958387740e+01
flow[sink_18,sink_6] 1.1555164447561538e+02
flow[sink_25,innode_8] -1.6205282312070293e+02
flow[sink_6,sink_7] 6.6489144475614921e+01
flow[sink_6,sink_22] 3.2708333333333641e+01
flow[sink_7,sink_24] 3.3780811142281152e+01
flow[sink_22,sink_1] 1.6354166666666970e+01
flow[sink_24,sink_21] 1.7426644475614484e+01
flow[sink_21,sink_12] 1.0724778089478180e+00
flow[sink_7,sink_5] 1.6354166666667368e+01
flow[sink_5,sink_17] 0
flow[sink_17,sink_4] -2.9661427041612228e+01
flow[sink_17,sink_8] 1.3307260374945525e+01
flow[sink_3,sink_23] 16.3541666666697
flow[sink_8,sink_20] -3.0469062917211431e+00
flow[sink_25,sink_20] 0
flow[sink_25,sink_15] -7.0964334501025562e+01
flow[sink_15,sink_29] 0
flow[sink_29,sink_28] 1.6354166666667879e+01
flow[sink_29,sink_2] 1.0367266783435890e+02
flow[sink_2,sink_15] 8.7318501167692233e+01
flow[sink_29,innode_7] -1.3638100116769346e+02
flow[innode_4,sink_19] 4.9917986109829130e+01
flow[sink_19,innode_3] 4.6427261337992526e+01
flow[innode_4,innode_5] 7.7929000744058726e+01
flow[sink_27,innode_5] -7.7929000744058726e+01
flow[sink_27,sink_19] 6.1574834077392055e+01
flow[sink_10,sink_11] 3.2708333333333641e+01
flow[sink_10,innode_2] -4.8711392182562129e+01
flow[sink_10,innode_3] -4.6427261337992526e+01
flow[innode_6,sink_25] 1.3367820187220481e+01
flow[sink_11,innode_1] 1.6354166666666970e+01
flow[sink_19,innode_2] 4.8711392182562129e+01
flow[source_3,innode_4] 1.2784698685388786e+02
flow[source_2,innode_7] 1.3638100116769346e+02
flow[sink_3,innode_8] 1.6205282312070293e+02
pressure[innode_1] 7.6264645621846569e+01
pressure[innode_2] 7.8990945190937282e+01
pressure[innode_3] 7.8888137278021318e+01
pressure[innode_4] 81.01325
pressure[innode_5] 80.9596463240793
pressure[innode_6] 7.4110124979624175e+01
pressure[innode_7] 81.01325
pressure[innode_8] 8.0362237855432667e+01
pressure[source_1] 81.01325
pressure[source_2] 81.01325
pressure[source_3] 81.01325
pressure[sink_1] 39.0760517657386
pressure[sink_2] 74.739446812776
pressure[sink_3] 8.0362237855432667e+01
pressure[sink_4] 4.9591945734585693e+01
pressure[sink_5] 3.3462821881714405e+01
pressure[sink_6] 4.1177129376125968e+01
pressure[sink_7] 4.0264391908609120e+01
pressure[sink_8] 4.7956266293228587e+01
pressure[sink_9] 4.9035447720142095e+01
pressure[sink_10] 7.6416346929450114e+01
pressure[sink_11] 7.6264645621846569e+01
pressure[sink_12] 1.01325
pressure[sink_13] 7.4183819538346029e+01
pressure[sink_14] 7.4237009565574539e+01
pressure[sink_15] 7.4454371151151165e+01
pressure[sink_16] 7.5242995787028889e+01
pressure[sink_17] 4.8458383798587612e+01
pressure[sink_18] 4.4262702326083428e+01
pressure[sink_19] 7.8990945190937282e+01
pressure[sink_20] 4.8168592812292538e+01
pressure[sink_21] 1.3948963013627547e+00
pressure[sink_22] 4.0139820908093604e+01
pressure[sink_23] 8.0197519843772881e+01
pressure[sink_24] 1.5878801976464569e+00
pressure[sink_25] 7.4110124979624175e+01
pressure[sink_26] 5.7909190040477128e+01
pressure[sink_27] 8.0312979615213820e+01
pressure[sink_28] 7.7070310217105273e+01
pressure[sink_29] 7.7365592490722449e+01
interdiction[source_1,sink_3] 0
interdiction[innode_1,sink_16] 0
interdiction[innode_6,sink_13] 0
interdiction[sink_13,sink_14] 0
interdiction[sink_14,sink_10] 0
interdiction[sink_25,sink_26] 0
interdiction[sink_26,sink_9] 0
interdiction[sink_9,sink_18] 0
interdiction[sink_26,sink_4] 0
interdiction[sink_4,sink_20] 0
interdiction[sink_18,sink_6] 0
interdiction[sink_25,innode_8] 0
interdiction[sink_6,sink_7] 0
interdiction[sink_6,sink_22] 0
interdiction[sink_7,sink_24] 0
interdiction[sink_22,sink_1] 0
interdiction[sink_24,sink_21] 0
interdiction[sink_21,sink_12] 0
interdiction[sink_7,sink_5] 0
interdiction[sink_5,sink_17] 1
interdiction[sink_17,sink_4] 0
interdiction[sink_17,sink_8] 0
interdiction[sink_3,sink_23] 0
interdiction[sink_8,sink_20] 0
interdiction[sink_25,sink_20] 1
interdiction[sink_25,sink_15] 0
interdiction[sink_15,sink_29] 1
interdiction[sink_29,sink_28] 0
interdiction[sink_29,sink_2] 0
interdiction[sink_2,sink_15] 0
interdiction[sink_29,innode_7] 0
interdiction[innode_4,sink_19] 0
interdiction[sink_19,innode_3] 0
interdiction[innode_4,innode_5] 0
interdiction[sink_27,innode_5] 0
interdiction[sink_27,sink_19] 0
interdiction[sink_10,sink_11] 0
interdiction[sink_10,innode_2] 0
interdiction[sink_10,innode_3] 0
interdiction[innode_6,sink_25] 0
interdiction[sink_11,innode_1] 0
interdiction[sink_19,innode_2] 0
interdiction[source_3,innode_4] 0
interdiction[source_2,innode_7] 0
interdiction[sink_3,innode_8] 0
WCcheckFlow[source_1,sink_3] 39
WCcheckFlow[innode_1,sink_16] 1
WCcheckFlow[innode_6,sink_13] 13
WCcheckFlow[sink_13,sink_14] 12
WCcheckFlow[sink_14,sink_10] 11
WCcheckFlow[sink_25,sink_26] 15
WCcheckFlow[sink_26,sink_9] 10
WCcheckFlow[sink_9,sink_18] 9
WCcheckFlow[sink_26,sink_4] 4
WCcheckFlow[sink_4,sink_20] 1
WCcheckFlow[sink_18,sink_6] 8
WCcheckFlow[sink_25,innode_8] -36
WCcheckFlow[sink_6,sink_7] 5
WCcheckFlow[sink_6,sink_22] 2
WCcheckFlow[sink_7,sink_24] 3
WCcheckFlow[sink_22,sink_1] 1
WCcheckFlow[sink_24,sink_21] 2
WCcheckFlow[sink_21,sink_12] 1
WCcheckFlow[sink_7,sink_5] 1
WCcheckFlow[sink_5,sink_17] 0
WCcheckFlow[sink_17,sink_4] -2
WCcheckFlow[sink_17,sink_8] 1
WCcheckFlow[sink_3,sink_23] 1
WCcheckFlow[sink_8,sink_20] 0
WCcheckFlow[sink_25,sink_20] 0
WCcheckFlow[sink_25,sink_15] 6
WCcheckFlow[sink_15,sink_29] 0
WCcheckFlow[sink_29,sink_28] 1
WCcheckFlow[sink_29,sink_2] -4
WCcheckFlow[sink_2,sink_15] -5
WCcheckFlow[sink_29,innode_7] 2
WCcheckFlow[innode_4,sink_19] -4
WCcheckFlow[sink_19,innode_3] -5
WCcheckFlow[innode_4,innode_5] 2
WCcheckFlow[sink_27,innode_5] -1
WCcheckFlow[sink_27,sink_19] 0
WCcheckFlow[sink_10,sink_11] 3
WCcheckFlow[sink_10,innode_2] 1
WCcheckFlow[sink_10,innode_3] 6
WCcheckFlow[innode_6,sink_25] -14
WCcheckFlow[sink_11,innode_1] 2
WCcheckFlow[sink_19,innode_2] 0
WCcheckFlow[source_3,innode_4] -1
WCcheckFlow[source_2,innode_7] -1
WCcheckFlow[sink_3,innode_8] 37
